SAT
-27 -78 26 -60 72 -98 -12 -66 160 -107 -74 -28 121 -15 -175 -67 -117 -25 -43 -141 37 -14 80 158 -3 113 -120 104 -64 149 -159 133 -24 -47 -84 -53 -124 -76 115 156 -154 -135 128 -105 55 90 111 -46 45 63 125 40 126 -70 -48 -139 -34 -31 136 101 35 81 -62 -19 -100 -57 18 82 61 -123 36 102 44 -144 110 116 168 -172 142 -138 -119 -148 -86 -83 87 38 9 2 -157 -65 39 127 -7 106 131 23 155 4 -73 21 146 -30 20 161 162 -140 -85 -33 -10 50 -41 167 54 -99 -103 68 174 153 114 89 -152 -164 -94 17 -8 169 -132 93 79 -52 -92 91 -163 56 77 173 -143 -51 170 11 -71 5 165 -88 22 -137 42 -147 -166 32 -130 58 6 -97 122 -129 -13 1 -112 118 59 -150 171 145 16 -29 151 -95 108 -134 75 49 -96 69 -109 0
